c This is an instance of the exact track of PACE 2020 Challenge, see https://pacechallenge.org/2020/ 
c TYPE: biology 
c ORIGIN: www.genome.jp/kegg/ 
c DESCRIPTION: This is a graph derived from a biological pathway map. The nodes are genes (also representing their associated proteins), enzymes, or chemical compounds, and there is an edge between two nodes if they influence each other (such as a gene modifying the expression of another gene) or take part in a common chemical reaction. This graph is a connected part of the map "olu01110 Biosynthesis of secondary metabolites - Ostreococcus lucimarinus". 
p tdp 204 248
59 61
59 80
59 58
61 60
140 141
140 139
141 142
82 83
82 7
82 81
83 84
106 107
106 105
106 109
107 108
25 197
25 24
25 199
197 198
31 34
31 32
31 20
31 23
31 30
31 13
34 35
34 13
138 139
138 137
38 39
38 37
39 40
52 86
52 157
52 54
52 2
52 58
52 53
66 67
66 65
67 68
18 19
18 14
18 166
18 167
18 169
19 20
96 97
96 95
97 98
23 26
23 22
23 32
23 24
23 30
23 188
23 20
26 27
26 24
188 189
32 33
32 20
32 30
33 20
33 29
33 30
175 176
175 174
128 160
128 130
128 127
128 3
128 129
160 158
94 95
94 93
110 111
110 101
110 203
111 112
119 120
119 115
120 115
74 75
74 73
75 76
157 159
157 158
114 116
114 115
116 115
20 64
20 30
20 21
20 12
20 22
181 204
181 182
181 183
204 180
117 118
117 71
117 115
117 161
118 115
50 51
50 49
51 49
198 199
199 200
14 13
68 179
179 70
179 69
42 43
42 41
167 168
167 166
108 147
108 109
108 143
147 146
41 187
41 40
187 44
12 134
12 3
12 13
12 64
12 125
134 185
134 135
64 65
8 56
8 7
8 54
8 1
56 54
29 190
29 28
29 30
73 162
73 71
73 161
73 69
105 104
69 71
69 161
69 70
71 79
71 72
71 173
27 28
173 174
173 177
35 36
36 37
4 5
4 3
4 2
5 6
54 53
53 55
55 57
55 88
92 93
92 91
164 165
164 163
165 163
163 3
72 123
72 151
72 122
123 124
123 122
124 171
161 70
171 172
3 130
3 148
3 15
3 2
130 131
137 136
15 16
16 17
145 146
145 144
7 81
7 9
100 101
100 99
101 102
158 159
22 21
135 136
135 170
136 184
190 193
190 192
193 192
193 194
177 178
21 180
151 152
151 155
152 153
49 48
99 201
99 98
201 202
6 11
11 10
40 121
40 46
60 62
131 132
48 47
144 143
98 113
70 87
89 90
89 88
90 91
77 78
77 76
46 47
127 126
62 63
149 150
149 84
153 154
44 45
192 191
195 196
195 194
103 104
103 102
2 1
81 80
80 184
155 156
185 186
125 126
10 9
132 133
63 85
